
Log started (V12.10.0.0) Thu Apr  8 18:14:54 2021


Problem 'asset.lp' read.
Read time = 0.01 sec. (0.14 ticks)
New value for default parallel thread count: 1
New value for time limit in seconds: 200
Version identifier: 12.10.0.0 | 2019-11-26 | 843d4de
CPXPARAM_Threads                                 1
CPXPARAM_TimeLimit                               200
Found incumbent of value -0.891198 after 0.00 sec. (0.06 ticks)
Tried aggregator 3 times.
MIP Presolve eliminated 622 rows and 418 columns.
MIP Presolve modified 1195 coefficients.
Aggregator did 297 substitutions.
Reduced MIP has 440 rows, 464 columns, and 1980 nonzeros.
Reduced MIP has 384 binaries, 51 generals, 0 SOSs, and 0 indicators.
Presolve time = 0.01 sec. (4.16 ticks)
Probing fixed 165 vars, tightened 26 bounds.
Probing time = 0.00 sec. (1.19 ticks)
Cover probing fixed 0 vars, tightened 52 bounds.
Tried aggregator 2 times.
MIP Presolve eliminated 258 rows and 256 columns.
MIP Presolve modified 44 coefficients.
Aggregator did 1 substitutions.
Reduced MIP has 181 rows, 203 columns, and 626 nonzeros.
Reduced MIP has 161 binaries, 17 generals, 0 SOSs, and 0 indicators.
Presolve time = 0.00 sec. (1.62 ticks)
Probing time = 0.00 sec. (0.32 ticks)
Tried aggregator 1 time.
Detecting symmetries...
MIP Presolve modified 16 coefficients.
Reduced MIP has 181 rows, 203 columns, and 626 nonzeros.
Reduced MIP has 161 binaries, 17 generals, 0 SOSs, and 0 indicators.
Presolve time = 0.00 sec. (0.43 ticks)
Probing time = 0.00 sec. (0.32 ticks)
Clique table members: 514.
MIP emphasis: balance optimality and feasibility.
MIP search method: dynamic search.
Parallel mode: none, using 1 thread.
Root relaxation solution time = 0.00 sec. (1.02 ticks)

        Nodes                                         Cuts/
   Node  Left     Objective  IInf  Best Integer    Best Bound    ItCnt     Gap

*     0+    0                           -0.8912      276.7156              --- 
      0     0      123.3280    43       -0.8912      123.3280      119     --- 
*     0+    0                           59.6850      123.3280           106.63%
      0     0      110.4861    43       59.6850     Cuts: 107      167   85.12%
*     0+    0                           95.8737      110.4861            15.24%
      0     0      108.1072    43       95.8737      Cuts: 21      194   12.76%
      0     0      108.1059    43       95.8737      Cuts: 21      202   12.76%
      0     0      108.0108    43       95.8737      Cuts: 14      215   12.66%
      0     0      107.7711    43       95.8737      Cuts: 21      224   12.41%
*     0+    0                          104.0886      107.7711             3.54%
Detecting symmetries...
      0     0      107.6325    43      104.0886      Cuts: 23      239    3.40%
*     0+    0                          105.5603      107.6325             1.96%
Detecting symmetries...

Repeating presolve.
Tried aggregator 3 times.
MIP Presolve eliminated 75 rows and 94 columns.
MIP Presolve modified 6 coefficients.
Aggregator did 5 substitutions.
Reduced MIP has 101 rows, 104 columns, and 331 nonzeros.
Reduced MIP has 81 binaries, 9 generals, 0 SOSs, and 0 indicators.
Presolve time = 0.00 sec. (0.50 ticks)
Probing fixed 5 vars, tightened 0 bounds.
Probing time = 0.00 sec. (0.18 ticks)
Cover probing fixed 0 vars, tightened 1 bounds.
Tried aggregator 3 times.
MIP Presolve eliminated 10 rows and 13 columns.
MIP Presolve modified 23 coefficients.
Aggregator did 4 substitutions.
Reduced MIP has 87 rows, 87 columns, and 284 nonzeros.
Reduced MIP has 68 binaries, 6 generals, 0 SOSs, and 0 indicators.
Presolve time = 0.00 sec. (0.45 ticks)
Probing time = 0.00 sec. (0.12 ticks)
Tried aggregator 1 time.
Detecting symmetries...
MIP Presolve modified 23 coefficients.
Reduced MIP has 87 rows, 87 columns, and 284 nonzeros.
Reduced MIP has 68 binaries, 6 generals, 0 SOSs, and 0 indicators.
Presolve time = 0.00 sec. (0.19 ticks)
Represolve time = 0.00 sec. (2.58 ticks)
Probing time = 0.00 sec. (0.12 ticks)
Clique table members: 253.
MIP emphasis: balance optimality and feasibility.
MIP search method: dynamic search.
Parallel mode: none, using 1 thread.
Root relaxation solution time = 0.00 sec. (0.61 ticks)

        Nodes                                         Cuts/
   Node  Left     Objective  IInf  Best Integer    Best Bound    ItCnt     Gap

*     0+    0                          105.5603      107.6325             1.96%
      0     0      106.9819    35      105.5603      106.9819      293    1.35%
      0     0      105.9062    35      105.5603      Cuts: 35      315    0.33%
*     0+    0                          105.5632      105.9062             0.32%

Clique cuts applied:  5
Implied bound cuts applied:  12
Mixed integer rounding cuts applied:  3
Zero-half cuts applied:  5
Lift and project cuts applied:  1
Gomory fractional cuts applied:  3

Root node processing (before b&c):
  Real time             =    0.05 sec. (32.82 ticks)
Sequential b&c:
  Real time             =    0.00 sec. (0.00 ticks)
                          ------------
Total (root+branch&cut) =    0.05 sec. (32.82 ticks)

Solution pool: 6 solutions saved.

MIP - Integer optimal, tolerance (0.0001/1e-06):  Objective =  1.0556317565e+02
Current MIP best bound =  1.0556442231e+02 (gap = 0.00124666, 0.00%)
Solution time =    0.05 sec.  Iterations = 319  Nodes = 0 (1)
Deterministic time = 32.83 ticks  (615.06 ticks/sec)


Incumbent solution
Variable Name           Solution Value
F                           110.000000
f1                            0.906824
f2                            3.530000
y55                           1.000000
y192                          1.000000
y39                           1.000000
y69                           1.000000
y150                          1.000000
y177                          1.000000
y140                          1.000000
s24                           6.000000
s26                           6.000000
s38                           6.000000
s47                           6.000000
s52                           6.000000
s77                           6.000000
s108                          6.000000
s121                          6.000000
s129                          6.000000
s135                          6.000000
s163                          6.000000
s181                          6.000000
s184                          6.000000
s186                          6.000000
s132                          6.030000
s70                           6.110000
s55                           6.687183
s44                           6.160000
s21                           6.220000
s37                           6.230000
s175                          6.240000
s176                          6.270000
s120                          6.280000
s119                          6.290000
s167                          6.330000
s13                           6.400000
s57                           6.540000
s192                          7.018444
s17                           6.740000
s200                          6.800000
s188                          6.810000
s99                           6.850000
s174                          6.850000
s39                           7.688915
s67                           6.890000
s69                           6.890000
s150                          7.923333
s158                          6.950000
s177                          7.718309
s140                          7.954598
x88x192x1                     1.000000
x88x177x1                     1.000000
x34x39x1                      1.000000
x148x39x2                     1.000000
x34x69x2                      1.000000
x196x55x2                     1.000000
x148x177x3                    1.000000
x196x55x3                     1.000000
x75x192x3                     1.000000
x75x69x3                      1.000000
x55x140x2                     1.000000
x55x140x3                     1.000000
x192x0x1                      1.000000
x192x0x3                      1.000000
x39x0x1                       1.000000
x39x0x2                       1.000000
x69x150x2                     1.000000
x69x150x3                     1.000000
x150x0x2                      1.000000
x150x0x3                      1.000000
x177x0x1                      1.000000
x177x0x3                      1.000000
x140x0x2                      1.000000
x140x0x3                      1.000000
s88                           5.456222
z88z192z1                     1.000000
z88z177z1                     1.000000
s148                          5.740972
z148z39z2                     1.000000
z148z177z3                    1.000000
s34                           5.364254
z34z39z1                      1.000000
z34z69z2                      1.000000
s196                          4.849810
z196z55z2                     1.000000
z196z55z3                     1.000000
z196z174z3                    1.000000
z196z158z3                    1.000000
s75                           4.866370
z75z192z3                     1.000000
z75z174z3                     1.000000
z75z69z3                      1.000000
z75z158z3                     1.000000
z55z140z2                     1.000000
z55z140z3                     1.000000
z69z150z2                     1.000000
z69z150z3                     1.000000
All other variables in the range 1-1179 are 0.
